
Gurobi 10.0.1 (win64) logging started Sat Sep 16 16:57:08 2023

Set parameter LogFile to value "./results-heuristic-start//log/Fattahi_setup_04_modified_old_deadline.log"
Gurobi Optimizer version 10.0.1 build v10.0.1rc0 (win64)

CPU model: AMD Ryzen 7 3700X 8-Core Processor, instruction set [SSE2|AVX|AVX2]
Thread count: 8 physical cores, 16 logical processors, using up to 16 threads

Optimize a model with 96 rows, 62 columns and 355 nonzeros
Model fingerprint: 0x77d3bed3
Model has 1 quadratic constraint
Variable types: 10 continuous, 52 integer (51 binary)
Coefficient statistics:
  Matrix range     [1e+00, 1e+06]
  QMatrix range    [1e+00, 1e+00]
  QLMatrix range   [1e+00, 4e+02]
  Objective range  [1e+00, 1e+00]
  Bounds range     [1e+00, 1e+00]
  RHS range        [1e+00, 3e+06]

User MIP start did not produce a new incumbent solution
User MIP start violates constraint initial_start_time_job0_stage0_machine0_constraint by 420.000000000

Presolve removed 24 rows and 27 columns
Presolve time: 0.00s
Presolved: 77 rows, 39 columns, 308 nonzeros
Variable types: 14 continuous, 25 integer (24 binary)

Root relaxation: objective 0.000000e+00, 22 iterations, 0.00 seconds (0.00 work units)
Another try with MIP start

    Nodes    |    Current Node    |     Objective Bounds      |     Work
 Expl Unexpl |  Obj  Depth IntInf | Incumbent    BestBd   Gap | It/Node Time

H    0     0                    1712.0000000    0.00000   100%     -    0s
     0     0    0.00000    0    7 1712.00000    0.00000   100%     -    0s
     0     0  992.00000    0   13 1712.00000  992.00000  42.1%     -    0s
     0     0 1021.00000    0    9 1712.00000 1021.00000  40.4%     -    0s
     0     0 1021.00000    0    7 1712.00000 1021.00000  40.4%     -    0s
     0     0 1030.00000    0    7 1712.00000 1030.00000  39.8%     -    0s
     0     0 1375.00000    0    9 1712.00000 1375.00000  19.7%     -    0s
     0     0 1669.00000    0   10 1712.00000 1669.00000  2.51%     -    0s
     0     0 1669.00069    0   10 1712.00000 1669.00069  2.51%     -    0s
     0     1 1669.00069    0   10 1712.00000 1669.00069  2.51%     -    0s

Cutting planes:
  Learned: 9
  Gomory: 1
  Cover: 5
  Implied bound: 3
  MIR: 6
  Flow cover: 16
  RLT: 3
  Relax-and-lift: 1

Explored 92 nodes (530 simplex iterations) in 0.03 seconds (0.01 work units)
Thread count was 16 (of 16 available processors)

Solution count 2: 1712 1712 

Optimal solution found (tolerance 1.00e-04)
Best objective 1.712000000000e+03, best bound 1.712000000000e+03, gap 0.0000%
Warning: constraint name "precedence between 0,1 to 0,0 if x_[j,l,h,z,i]=1" has a space
Warning: constraint name "precedence between 0,1 to 0,0 if x_[j,l,h,z,i]=1" has a space
Warning: default constraint names used to write mps file
